50
20659

350 95
624 363
408 647
40 776
157 229
802 366
276 375
101 756
404 984
866 839
174 201
657 664
308 74
821 514
111 713
327 518
584 334
826 98
890 276
370 270
879 779
35 896
985 556
86 333
772 437
886 542
526 320
274 959
906 931
593 37
857 395
301 351
681 332
228 885
445 890
47 484
430 219
632 862
517 39
283 362
915 921
377 664
452 118
239 984
433 23
663 391
824 898
833 910
828 55
228 788
